3 15
315 330 359 
0 45 35 63 53 82 72 63 21 25 53 21 66 3
1 99 89 76 66 52 42 100 97 57 77 64 30 1
2 37 27 72 62 14 4 33 90 49 42 42 64 1
3 24 14 32 22 49 39 27 65 66 27 71 59 2
4 19 9 90 80 60 50 9 96 6 27 90 76 3
5 17 7 18 8 26 16 87 70 74 92 85 64 1
6 12 2 59 49 13 3 90 13 96 63 19 81 1
7 45 35 30 20 106 96 15 65 4 11 26 75 1
8 77 67 28 18 78 68 76 45 28 32 43 53 2
9 83 73 51 41 28 18 96 11 7 75 6 49 1
10 59 49 13 3 60 50 90 34 42 97 80 47 2
11 98 88 99 89 107 97 35 9 61 28 97 40 1
12 26 16 53 43 79 69 27 43 5 87 27 1 3
13 103 93 51 41 100 90 29 3 70 85 26 96 1
14 37 27 75 65 14 4 90 37 41 60 38 19 1
